MSW02
Position Depot: Random
Horizon for Depot: Small
Position of customers: Mixt
Distribution of the demand: Large
Width of time windows: Wide
Distribution of the service: Small

VEHICLE 
NUMBER 	 CAPACITY 
 14 	 	 325 
 
CUSTOMER
CUST NO. 	 XCOORD.  	 YCOORD. 	 DEMAND 	 READY TIME 	 DUE DATE 	 SERVICE TIME 
 0 	 	 564 	 	 995 	 	 0 	 	 0 	 	 2446 	 	 0 
  1 	 	 990 	 	 321 	 	 56 	 	 772 	 	 1027 	 	 91 
  2 	 	 960 	 	 696 	 	 92 	 	 351 	 	 597 	 	 84 
  3 	 	 542 	 	 133 	 	 31 	 	 738 	 	 948 	 	 84 
  4 	 	 390 	 	 415 	 	 80 	 	 222 	 	 666 	 	 64 
  5 	 	 923 	 	 273 	 	 66 	 	 427 	 	 886 	 	 92 
  6 	 	 912 	 	 629 	 	 32 	 	 670 	 	 877 	 	 51 
  7 	 	 424 	 	 461 	 	 45 	 	 1557 	 	 1865 	 	 96 
  8 	 	 993 	 	 334 	 	 36 	 	 2085 	 	 2322 	 	 51 
  9 	 	 555 	 	 167 	 	 46 	 	 1367 	 	 1575 	 	 86 
  10 	 	 545 	 	 201 	 	 42 	 	 667 	 	 873 	 	 72 
  11 	 	 740 	 	 426 	 	 40 	 	 2083 	 	 2446 	 	 84 
  12 	 	 861 	 	 677 	 	 8 	 	 920 	 	 1401 	 	 61 
  13 	 	 676 	 	 91 	 	 41 	 	 1468 	 	 1939 	 	 90 
  14 	 	 404 	 	 433 	 	 6 	 	 753 	 	 1193 	 	 68 
  15 	 	 998 	 	 625 	 	 65 	 	 2221 	 	 2446 	 	 73 
  16 	 	 480 	 	 226 	 	 90 	 	 896 	 	 1131 	 	 72 
  17 	 	 998 	 	 334 	 	 95 	 	 2049 	 	 2265 	 	 78 
  18 	 	 335 	 	 411 	 	 65 	 	 231 	 	 690 	 	 61 
  19 	 	 397 	 	 444 	 	 7 	 	 373 	 	 713 	 	 62 
  20 	 	 991 	 	 361 	 	 26 	 	 1812 	 	 2047 	 	 80 
  21 	 	 496 	 	 324 	 	 18 	 	 1696 	 	 2088 	 	 52 
  22 	 	 518 	 	 127 	 	 42 	 	 613 	 	 956 	 	 59 
  23 	 	 500 	 	 118 	 	 19 	 	 1630 	 	 1942 	 	 66 
  24 	 	 575 	 	 140 	 	 60 	 	 875 	 	 1343 	 	 66 
  25 	 	 316 	 	 426 	 	 72 	 	 2160 	 	 2446 	 	 54 
  26 	 	 394 	 	 370 	 	 22 	 	 2103 	 	 2402 	 	 98 
  27 	 	 447 	 	 403 	 	 11 	 	 912 	 	 1411 	 	 96 
  28 	 	 947 	 	 686 	 	 99 	 	 296 	 	 541 	 	 82 
  29 	 	 989 	 	 333 	 	 13 	 	 1818 	 	 2217 	 	 67 
  30 	 	 412 	 	 410 	 	 55 	 	 960 	 	 1387 	 	 76 
  31 	 	 824 	 	 286 	 	 34 	 	 574 	 	 830 	 	 53 
  32 	 	 490 	 	 103 	 	 47 	 	 1419 	 	 1674 	 	 87 
  33 	 	 449 	 	 133 	 	 95 	 	 562 	 	 956 	 	 100 
  34 	 	 997 	 	 352 	 	 9 	 	 582 	 	 852 	 	 76 
  35 	 	 916 	 	 660 	 	 27 	 	 1520 	 	 1877 	 	 63 
  36 	 	 985 	 	 723 	 	 91 	 	 2000 	 	 2358 	 	 59 
  37 	 	 995 	 	 709 	 	 100 	 	 1834 	 	 2049 	 	 52 
  38 	 	 458 	 	 99 	 	 86 	 	 507 	 	 992 	 	 83 
  39 	 	 400 	 	 415 	 	 92 	 	 602 	 	 944 	 	 89 
  40 	 	 557 	 	 107 	 	 23 	 	 572 	 	 976 	 	 98 
  41 	 	 997 	 	 281 	 	 2 	 	 2033 	 	 2417 	 	 77 
  42 	 	 479 	 	 445 	 	 16 	 	 1160 	 	 1528 	 	 94 
  43 	 	 921 	 	 318 	 	 72 	 	 611 	 	 841 	 	 99 
  44 	 	 918 	 	 364 	 	 35 	 	 2066 	 	 2446 	 	 76 
  45 	 	 523 	 	 93 	 	 21 	 	 1630 	 	 1968 	 	 85 
  46 	 	 417 	 	 419 	 	 54 	 	 266 	 	 653 	 	 59 
  47 	 	 972 	 	 721 	 	 85 	 	 281 	 	 540 	 	 80 
  48 	 	 408 	 	 392 	 	 2 	 	 488 	 	 841 	 	 95 
  49 	 	 357 	 	 425 	 	 27 	 	 2245 	 	 2446 	 	 65 
  50 	 	 365 	 	 366 	 	 25 	 	 249 	 	 725 	 	 90 
  51 	 	 522 	 	 698 	 	 55 	 	 1601 	 	 2092 	 	 88 
  52 	 	 416 	 	 286 	 	 15 	 	 339 	 	 796 	 	 93 
  53 	 	 726 	 	 976 	 	 10 	 	 58 	 	 432 	 	 84 
  54 	 	 510 	 	 544 	 	 14 	 	 560 	 	 820 	 	 79 
  55 	 	 713 	 	 606 	 	 3 	 	 940 	 	 1400 	 	 77 
  56 	 	 491 	 	 328 	 	 59 	 	 343 	 	 738 	 	 62 
  57 	 	 587 	 	 346 	 	 72 	 	 911 	 	 1212 	 	 84 
  58 	 	 302 	 	 704 	 	 59 	 	 198 	 	 430 	 	 58 
  59 	 	 164 	 	 571 	 	 67 	 	 564 	 	 777 	 	 56 
  60 	 	 173 	 	 501 	 	 53 	 	 677 	 	 982 	 	 74 
  61 	 	 947 	 	 830 	 	 94 	 	 141 	 	 458 	 	 92 
  62 	 	 559 	 	 110 	 	 11 	 	 631 	 	 1106 	 	 98 
  63 	 	 497 	 	 249 	 	 71 	 	 1948 	 	 2446 	 	 84 
  64 	 	 273 	 	 933 	 	 69 	 	 1742 	 	 2089 	 	 52 
  65 	 	 419 	 	 853 	 	 5 	 	 338 	 	 667 	 	 62 
  66 	 	 989 	 	 705 	 	 23 	 	 1427 	 	 1705 	 	 73 
  67 	 	 367 	 	 840 	 	 99 	 	 2184 	 	 2446 	 	 99 
  68 	 	 180 	 	 474 	 	 29 	 	 627 	 	 833 	 	 75 
  69 	 	 605 	 	 886 	 	 44 	 	 898 	 	 1230 	 	 77 
  70 	 	 744 	 	 733 	 	 35 	 	 1762 	 	 2196 	 	 81 
  71 	 	 651 	 	 615 	 	 7 	 	 1677 	 	 2144 	 	 96 
  72 	 	 408 	 	 519 	 	 9 	 	 218 	 	 551 	 	 94 
  73 	 	 689 	 	 29 	 	 66 	 	 1875 	 	 2237 	 	 83 
  74 	 	 225 	 	 63 	 	 74 	 	 665 	 	 1090 	 	 97 
  75 	 	 309 	 	 983 	 	 89 	 	 281 	 	 693 	 	 62 
  76 	 	 147 	 	 132 	 	 94 	 	 2217 	 	 2446 	 	 97 
  77 	 	 253 	 	 979 	 	 29 	 	 737 	 	 991 	 	 94 
  78 	 	 906 	 	 901 	 	 2 	 	 3 	 	 425 	 	 80 
  79 	 	 118 	 	 6 	 	 36 	 	 762 	 	 1193 	 	 57 
  80 	 	 15 	 	 905 	 	 13 	 	 1760 	 	 2220 	 	 97 
  81 	 	 756 	 	 299 	 	 68 	 	 1779 	 	 2068 	 	 64 
  82 	 	 859 	 	 25 	 	 34 	 	 1046 	 	 1249 	 	 60 
  83 	 	 305 	 	 90 	 	 59 	 	 1514 	 	 1919 	 	 95 
  84 	 	 536 	 	 301 	 	 48 	 	 1047 	 	 1384 	 	 92 
  85 	 	 813 	 	 544 	 	 17 	 	 222 	 	 566 	 	 63 
  86 	 	 933 	 	 484 	 	 32 	 	 409 	 	 725 	 	 87 
  87 	 	 194 	 	 49 	 	 6 	 	 1187 	 	 1627 	 	 82 
  88 	 	 65 	 	 893 	 	 60 	 	 1940 	 	 2269 	 	 92 
  89 	 	 614 	 	 481 	 	 13 	 	 518 	 	 907 	 	 80 
  90 	 	 978 	 	 329 	 	 99 	 	 1544 	 	 1951 	 	 76 
  91 	 	 407 	 	 985 	 	 95 	 	 1089 	 	 1369 	 	 56 
  92 	 	 900 	 	 875 	 	 17 	 	 408 	 	 890 	 	 90 
  93 	 	 362 	 	 987 	 	 8 	 	 1955 	 	 2446 	 	 50 
  94 	 	 308 	 	 502 	 	 100 	 	 593 	 	 1077 	 	 61 
  95 	 	 773 	 	 344 	 	 22 	 	 726 	 	 1111 	 	 99 
  96 	 	 132 	 	 893 	 	 83 	 	 1617 	 	 2059 	 	 89 
  97 	 	 69 	 	 252 	 	 55 	 	 1666 	 	 1891 	 	 54 
  98 	 	 323 	 	 834 	 	 99 	 	 1788 	 	 2102 	 	 62 
  99 	 	 555 	 	 59 	 	 92 	 	 774 	 	 1029 	 	 73 
  100 	 	 840 	 	 954 	 	 4 	 	 1847 	 	 2182 	 	 92 
 